50
129650

6312 7306
6891 7886
664 1653
4243 5257
8377 9385
7962 8947
6635 7620
4970 5970
7809 8821
5867 6878
9559 10545
3579 4578
8269 9284
2282 3280
4618 5605
2290 3305
1554 2555
4105 5119
8726 9719
9862 10880
2408 3423
5082 6099
1619 2617
1209 2217
5410 6395
7736 8754
9172 10176
1650 2650
5797 6813
7114 8109
5181 6179
3351 4342
9053 10045
7816 8807
7254 8236
8542 9561
4268 5264
1021 2031
8990 9974
231 1216
1529 2517
6535 7524
19 1001
8087 9072
5459 6473
3997 5002
5329 6342
1032 2029
3131 4144
9299 10294
